(set-option :produce-models true)
(set-logic QF_LRA)
(set-info :notes | Strip-packing problem.|)
(declare-fun x0 () Real)
(declare-fun y0 () Real)
(declare-fun x1 () Real)
(declare-fun y1 () Real)
(declare-fun x2 () Real)
(declare-fun y2 () Real)
(declare-fun x3 () Real)
(declare-fun y3 () Real)
(declare-fun x4 () Real)
(declare-fun y4 () Real)
(declare-fun x5 () Real)
(declare-fun y5 () Real)
(declare-fun x6 () Real)
(declare-fun y6 () Real)
(declare-fun x7 () Real)
(declare-fun y7 () Real)
(declare-fun x8 () Real)
(declare-fun y8 () Real)
(declare-fun z () Real)
(declare-fun c () Real)
(assert (and (= c z) (and (>= x0 0) 
(and (>= y0 0) 
(and (>= x1 0) 
(and (>= y1 0) 
(and (>= x2 0) 
(and (>= y2 0) 
(and (>= x3 0) 
(and (>= y3 0) 
(and (>= x4 0) 
(and (>= y4 0) 
(and (>= x5 0) 
(and (>= y5 0) 
(and (>= x6 0) 
(and (>= y6 0) 
(and (>= x7 0) 
(and (>= y7 0) 
(and (>= x8 0) 
(and (>= y8 0) 
(and (>= z 0) 
(and (>= c 0) 
(and (<= (+ x0 0.7828955052) z) 
(and (<= 0.926681575 y0) 
(and (<= y0 1.5) 
(and (<= x0 (- 2.8650507195 0.7828955052)) 
(and (>= x0 0) 
(and (<= (+ x1 0.4518421716) z) 
(and (<= 0.8681085366 y1) 
(and (<= y1 1.5) 
(and (<= x1 (- 2.8650507195 0.4518421716)) 
(and (>= x1 0) 
(and (<= (+ x2 0.1496897302) z) 
(and (<= 0.8450844178 y2) 
(and (<= y2 1.5) 
(and (<= x2 (- 2.8650507195 0.1496897302)) 
(and (>= x2 0) 
(and (<= (+ x3 0.2380149928) z) 
(and (<= 0.8343584526 y3) 
(and (<= y3 1.5) 
(and (<= x3 (- 2.8650507195 0.2380149928)) 
(and (>= x3 0) 
(and (<= (+ x4 0.0616747252) z) 
(and (<= 0.8072816527 y4) 
(and (<= y4 1.5) 
(and (<= x4 (- 2.8650507195 0.0616747252)) 
(and (>= x4 0) 
(and (<= (+ x5 0.2884531577) z) 
(and (<= 0.6977499441 y5) 
(and (<= y5 1.5) 
(and (<= x5 (- 2.8650507195 0.2884531577)) 
(and (>= x5 0) 
(and (<= (+ x6 0.7819506544) z) 
(and (<= 0.4883995983 y6) 
(and (<= y6 1.5) 
(and (<= x6 (- 2.8650507195 0.7819506544)) 
(and (>= x6 0) 
(and (<= (+ x7 0.8924804368) z) 
(and (<= 0.3506835459 y7) 
(and (<= y7 1.5) 
(and (<= x7 (- 2.8650507195 0.8924804368)) 
(and (>= x7 0) 
(and (<= (+ x8 0.0339128538) z) 
(and (<= 0.1263916071 y8) 
(and (<= y8 1.5) 
(and (<= x8 (- 2.8650507195 0.0339128538)) 
(and (>= x8 0) 
(and (<= c 2.8650507195) 
(and (or (<= (+ x0 0.7828955052) x1) (or (<= (+ x1 0.4518421716) x0) (or (>= (- y0 0.926681575) y1) (or (>= (- y1 0.8681085366) y0))))) 
(and (or (<= (+ x0 0.7828955052) x2) (or (<= (+ x2 0.1496897302) x0) (or (>= (- y0 0.926681575) y2) (or (>= (- y2 0.8450844178) y0))))) 
(and (or (<= (+ x0 0.7828955052) x3) (or (<= (+ x3 0.2380149928) x0) (or (>= (- y0 0.926681575) y3) (or (>= (- y3 0.8343584526) y0))))) 
(and (or (<= (+ x0 0.7828955052) x4) (or (<= (+ x4 0.0616747252) x0) (or (>= (- y0 0.926681575) y4) (or (>= (- y4 0.8072816527) y0))))) 
(and (or (<= (+ x0 0.7828955052) x5) (or (<= (+ x5 0.2884531577) x0) (or (>= (- y0 0.926681575) y5) (or (>= (- y5 0.6977499441) y0))))) 
(and (or (<= (+ x0 0.7828955052) x6) (or (<= (+ x6 0.7819506544) x0) (or (>= (- y0 0.926681575) y6) (or (>= (- y6 0.4883995983) y0))))) 
(and (or (<= (+ x0 0.7828955052) x7) (or (<= (+ x7 0.8924804368) x0) (or (>= (- y0 0.926681575) y7) (or (>= (- y7 0.3506835459) y0))))) 
(and (or (<= (+ x0 0.7828955052) x8) (or (<= (+ x8 0.0339128538) x0) (or (>= (- y0 0.926681575) y8) (or (>= (- y8 0.1263916071) y0))))) 
(and (or (<= (+ x1 0.4518421716) x2) (or (<= (+ x2 0.1496897302) x1) (or (>= (- y1 0.8681085366) y2) (or (>= (- y2 0.8450844178) y1))))) 
(and (or (<= (+ x1 0.4518421716) x3) (or (<= (+ x3 0.2380149928) x1) (or (>= (- y1 0.8681085366) y3) (or (>= (- y3 0.8343584526) y1))))) 
(and (or (<= (+ x1 0.4518421716) x4) (or (<= (+ x4 0.0616747252) x1) (or (>= (- y1 0.8681085366) y4) (or (>= (- y4 0.8072816527) y1))))) 
(and (or (<= (+ x1 0.4518421716) x5) (or (<= (+ x5 0.2884531577) x1) (or (>= (- y1 0.8681085366) y5) (or (>= (- y5 0.6977499441) y1))))) 
(and (or (<= (+ x1 0.4518421716) x6) (or (<= (+ x6 0.7819506544) x1) (or (>= (- y1 0.8681085366) y6) (or (>= (- y6 0.4883995983) y1))))) 
(and (or (<= (+ x1 0.4518421716) x7) (or (<= (+ x7 0.8924804368) x1) (or (>= (- y1 0.8681085366) y7) (or (>= (- y7 0.3506835459) y1))))) 
(and (or (<= (+ x1 0.4518421716) x8) (or (<= (+ x8 0.0339128538) x1) (or (>= (- y1 0.8681085366) y8) (or (>= (- y8 0.1263916071) y1))))) 
(and (or (<= (+ x2 0.1496897302) x3) (or (<= (+ x3 0.2380149928) x2) (or (>= (- y2 0.8450844178) y3) (or (>= (- y3 0.8343584526) y2))))) 
(and (or (<= (+ x2 0.1496897302) x4) (or (<= (+ x4 0.0616747252) x2) (or (>= (- y2 0.8450844178) y4) (or (>= (- y4 0.8072816527) y2))))) 
(and (or (<= (+ x2 0.1496897302) x5) (or (<= (+ x5 0.2884531577) x2) (or (>= (- y2 0.8450844178) y5) (or (>= (- y5 0.6977499441) y2))))) 
(and (or (<= (+ x2 0.1496897302) x6) (or (<= (+ x6 0.7819506544) x2) (or (>= (- y2 0.8450844178) y6) (or (>= (- y6 0.4883995983) y2))))) 
(and (or (<= (+ x2 0.1496897302) x7) (or (<= (+ x7 0.8924804368) x2) (or (>= (- y2 0.8450844178) y7) (or (>= (- y7 0.3506835459) y2))))) 
(and (or (<= (+ x2 0.1496897302) x8) (or (<= (+ x8 0.0339128538) x2) (or (>= (- y2 0.8450844178) y8) (or (>= (- y8 0.1263916071) y2))))) 
(and (or (<= (+ x3 0.2380149928) x4) (or (<= (+ x4 0.0616747252) x3) (or (>= (- y3 0.8343584526) y4) (or (>= (- y4 0.8072816527) y3))))) 
(and (or (<= (+ x3 0.2380149928) x5) (or (<= (+ x5 0.2884531577) x3) (or (>= (- y3 0.8343584526) y5) (or (>= (- y5 0.6977499441) y3))))) 
(and (or (<= (+ x3 0.2380149928) x6) (or (<= (+ x6 0.7819506544) x3) (or (>= (- y3 0.8343584526) y6) (or (>= (- y6 0.4883995983) y3))))) 
(and (or (<= (+ x3 0.2380149928) x7) (or (<= (+ x7 0.8924804368) x3) (or (>= (- y3 0.8343584526) y7) (or (>= (- y7 0.3506835459) y3))))) 
(and (or (<= (+ x3 0.2380149928) x8) (or (<= (+ x8 0.0339128538) x3) (or (>= (- y3 0.8343584526) y8) (or (>= (- y8 0.1263916071) y3))))) 
(and (or (<= (+ x4 0.0616747252) x5) (or (<= (+ x5 0.2884531577) x4) (or (>= (- y4 0.8072816527) y5) (or (>= (- y5 0.6977499441) y4))))) 
(and (or (<= (+ x4 0.0616747252) x6) (or (<= (+ x6 0.7819506544) x4) (or (>= (- y4 0.8072816527) y6) (or (>= (- y6 0.4883995983) y4))))) 
(and (or (<= (+ x4 0.0616747252) x7) (or (<= (+ x7 0.8924804368) x4) (or (>= (- y4 0.8072816527) y7) (or (>= (- y7 0.3506835459) y4))))) 
(and (or (<= (+ x4 0.0616747252) x8) (or (<= (+ x8 0.0339128538) x4) (or (>= (- y4 0.8072816527) y8) (or (>= (- y8 0.1263916071) y4))))) 
(and (or (<= (+ x5 0.2884531577) x6) (or (<= (+ x6 0.7819506544) x5) (or (>= (- y5 0.6977499441) y6) (or (>= (- y6 0.4883995983) y5))))) 
(and (or (<= (+ x5 0.2884531577) x7) (or (<= (+ x7 0.8924804368) x5) (or (>= (- y5 0.6977499441) y7) (or (>= (- y7 0.3506835459) y5))))) 
(and (or (<= (+ x5 0.2884531577) x8) (or (<= (+ x8 0.0339128538) x5) (or (>= (- y5 0.6977499441) y8) (or (>= (- y8 0.1263916071) y5))))) 
(and (or (<= (+ x6 0.7819506544) x7) (or (<= (+ x7 0.8924804368) x6) (or (>= (- y6 0.4883995983) y7) (or (>= (- y7 0.3506835459) y6))))) 
(and (or (<= (+ x6 0.7819506544) x8) (or (<= (+ x8 0.0339128538) x6) (or (>= (- y6 0.4883995983) y8) (or (>= (- y8 0.1263916071) y6))))) 
(and (or (<= (+ x7 0.8924804368) x8) (or (<= (+ x8 0.0339128538) x7) (or (>= (- y7 0.3506835459) y8) (or (>= (- y8 0.1263916071) y7))))) ))))))))))))))))))))))))))))))))))))))))))))))))))))))))))))))))))))))))))))))))))))))))))))))))))))))))
(minimize c)
(check-sat)
(get-objectives)
(exit)
